100
128
63
39
5
24
28
63
51
38
25
7
16
16
46
60
33
53
9
64
3
60
55
55
35
11
53
9
2
13
44
18
34
20
33
14
19
14
4
2
1
19
13
19
12
22
31
14
58
35
1
26
27
2
15
31
4
33
24
27
17
29
3
11
11
20
19
20
11
1
21
4
25
60
2
12
20
15
25
4
4
49
25
4
24
18
60
1
31
56
8
50
17
51
18
22
31
20
3
33
63
64